tsp_instances/TSP20/instance73.tsp
NODE_COORD_SECTION
0 196 192
1 138 133
2 104 58
3 34 75
4 112 89
5 146 169
6 135 67
7 81 147
8 4 152
9 138 162
10 151 132
11 39 168
12 81 86
13 84 16
14 105 152
15 96 1
16 81 111
17 38 68
18 88 130
19 147 63
