tsp_instances/TSP20/instance73.opt.tour
TOUR_SECTION
1
6
10
15
8
12
9
4
18
14
16
3
20
7
5
13
17
19
2
11
-1